Route #1: 28 25 8 9 51 38 36 53 12
Route #2: 18 41 19 34 17 26 56
Route #3: 5 33 13 23 46
Route #4: 16 48 49 44 21 10 3 24 27
Route #5: 45 6 31 11 15 1
Route #6: 52 50 39 14 22 42 30 2
Route #7: 32 47 20 43 7 37 55
Route #8: 54 35 29 40 4
Cost 1140
Time 0.094754
